NAME : amz1912.130536_129036.tour
COMMENT : Cost = 130536_129036
COMMENT : Found by LKH-AMZ [Keld Helsgaun] Sun May 11 13:33:27 2025
COMMENT : TW viol.: 0 #: 0
TYPE : TOUR
DIMENSION : 169
TOUR_SECTION
51
143
145
50
109
23
9
156
1
5
49
72
3
90
148
68
167
116
141
64
54
165
159
48
108
107
130
52
45
79
138
140
134
21
139
22
122
103
149
56
25
78
120
34
93
47
84
15
126
85
74
13
2
80
7
150
44
75
113
135
57
111
86
28
29
125
31
157
17
26
16
41
115
162
97
118
83
92
14
36
100
82
60
55
67
94
144
102
71
131
20
133
77
136
88
96
73
166
10
46
132
18
33
81
106
65
98
66
105
147
30
161
19
32
27
69
53
112
39
76
121
4
154
158
163
89
42
155
160
62
164
43
153
104
129
127
11
169
35
123
101
124
6
137
95
119
61
110
128
117
99
63
142
40
168
8
24
12
91
146
37
151
59
58
87
38
70
152
114
-1
EOF
